(set-logic HORN)
(declare-fun state (Int (Array Int Int) (Array Int Int) (Array Int Int) (Array Int Int) Int Int (Array Int Int) (Array Int Int) Int Int Int Int Int Int Int Int Int Int Int Int (Array Int Int) Int Int Int Int Int Int Int Int Bool Bool Bool Bool Bool Int (Array Int Int)) Bool)
(assert (forall ((|hhv_ULTIMATE.start_ULTIMATE.startEXIT_0_Int| Int) (|hhv_ULTIMATE.start_ULTIMATE.startEXIT_1_Array_Int_Int| (Array Int Int)) (|hhv_ULTIMATE.start_ULTIMATE.startEXIT_2_Array_Int_Int| (Array Int Int)) (|hhv_ULTIMATE.start_ULTIMATE.startEXIT_3_Array_Int_Array_Int_Int| (Array Int Int)) (|hhv_ULTIMATE.start_ULTIMATE.startEXIT_4_Array_Int_Array_Int_Int| (Array Int Int)) (|hhv_ULTIMATE.start_ULTIMATE.startEXIT_5_Int| Int) (|hhv_ULTIMATE.start_ULTIMATE.startEXIT_6_Int| Int) (|hhv_ULTIMATE.start_ULTIMATE.startEXIT_7_Array_Int_Int| (Array Int Int)) (|hhv_ULTIMATE.start_ULTIMATE.startEXIT_8_Array_Int_Int| (Array Int Int)) (|hhv_ULTIMATE.start_ULTIMATE.startEXIT_9_Int| Int) (|hhv_ULTIMATE.start_ULTIMATE.startEXIT_10_Int| Int) (|hhv_ULTIMATE.start_ULTIMATE.startEXIT_11_Int| Int) (|hhv_ULTIMATE.start_ULTIMATE.startEXIT_12_Int| Int) (|hhv_ULTIMATE.start_ULTIMATE.startEXIT_13_Int| Int) (|hhv_ULTIMATE.start_ULTIMATE.startEXIT_14_Int| Int) (|hhv_ULTIMATE.start_ULTIMATE.startEXIT_15_Int| Int) (|hhv_ULTIMATE.start_ULTIMATE.startEXIT_16_Int| Int) (|hhv_ULTIMATE.start_ULTIMATE.startEXIT_17_Int| Int) (|hhv_ULTIMATE.start_ULTIMATE.startEXIT_18_Int| Int) (|hhv_ULTIMATE.start_ULTIMATE.startEXIT_19_Int| Int) (|hhv_ULTIMATE.start_ULTIMATE.startEXIT_20_Int| Int) (|hhv_ULTIMATE.start_ULTIMATE.startEXIT_21_Array_Int_Int| (Array Int Int)) (|hhv_ULTIMATE.start_ULTIMATE.startEXIT_22_Int| Int) (|hhv_ULTIMATE.start_ULTIMATE.startEXIT_23_Int| Int) (|hhv_ULTIMATE.start_ULTIMATE.startEXIT_24_Int| Int) (|hhv_ULTIMATE.start_ULTIMATE.startEXIT_25_Int| Int) (|hhv_ULTIMATE.start_ULTIMATE.startEXIT_26_Int| Int) (|hhv_ULTIMATE.start_ULTIMATE.startEXIT_27_Int| Int) (|hhv_ULTIMATE.start_ULTIMATE.startEXIT_28_Int| Int) (|hhv_ULTIMATE.start_ULTIMATE.startEXIT_29_Int| Int) (|hbv_ULTIMATE.start_L2-1_30_Bool| Bool) (|.loc.5| Bool) (|.loc.6| Bool) (|.loc.7| Bool) (|.loc.8| Bool) (|hbv_ULTIMATE.start_L19_23_Int| Int) (|hbv_ULTIMATE.start_L-1_1_Array_Int_Int| (Array Int Int)) (|.x.677| Int) (|.x.675| (Array Int Int)) (|.x.673| Int) (|.x.671| (Array Int Int)) (|.x.667| Int) (|.x.669| (Array Int Int)) (|.x.668| (Array Int Int)) (|hhv_ULTIMATE.start_ULTIMATE.startEXIT_30_Bool| Bool) (|.x.678| Int) (|.x.681| Int) (|.x.684| Int) (|.x.685| Int) (|.x.687| Int) (|.x.689| Int) (|.loc.11| Bool) (|.loc.10| Bool) (|.x.693| Int) (|.x.680| Int) (|.x.694| Int) (|.loc.9| Bool) (|.x.686| Int) (|.x.683| Int) (|.loc.12| Bool) (|.x.679| Int) (|.x.688| (Array Int Int)) (|.x.682| Int) (|.x.690| Int) (|.x.696| Int) (|.x.670| (Array Int Int)) (|.x.692| Int) (|.x.674| (Array Int Int)) (|.x.672| Int) (|.x.676| Int) (|.x.691| Int) (|.x.695| Int) (|.xtv.1| Int) (|.xtv.2| (Array Int Int))) (=> (and (and (and (and .loc.5 .loc.6) (not .loc.7)) (not .loc.8)) (and (and (and (and (and (= hhv_ULTIMATE.start_ULTIMATE.startEXIT_1_Array_Int_Int hhv_ULTIMATE.start_ULTIMATE.startEXIT_2_Array_Int_Int) (= hhv_ULTIMATE.start_ULTIMATE.startEXIT_7_Array_Int_Int hhv_ULTIMATE.start_ULTIMATE.startEXIT_8_Array_Int_Int)) (= hhv_ULTIMATE.start_ULTIMATE.startEXIT_5_Int hhv_ULTIMATE.start_ULTIMATE.startEXIT_6_Int)) (= hhv_ULTIMATE.start_ULTIMATE.startEXIT_9_Int hhv_ULTIMATE.start_ULTIMATE.startEXIT_10_Int)) (= hhv_ULTIMATE.start_ULTIMATE.startEXIT_3_Array_Int_Array_Int_Int hhv_ULTIMATE.start_ULTIMATE.startEXIT_4_Array_Int_Array_Int_Int)) (not hbv_ULTIMATE.start_L2-1_30_Bool))) (state |hhv_ULTIMATE.start_ULTIMATE.startEXIT_0_Int| |hhv_ULTIMATE.start_ULTIMATE.startEXIT_1_Array_Int_Int| |hhv_ULTIMATE.start_ULTIMATE.startEXIT_2_Array_Int_Int| |hhv_ULTIMATE.start_ULTIMATE.startEXIT_3_Array_Int_Array_Int_Int| |hhv_ULTIMATE.start_ULTIMATE.startEXIT_4_Array_Int_Array_Int_Int| |hhv_ULTIMATE.start_ULTIMATE.startEXIT_5_Int| |hhv_ULTIMATE.start_ULTIMATE.startEXIT_6_Int| |hhv_ULTIMATE.start_ULTIMATE.startEXIT_7_Array_Int_Int| |hhv_ULTIMATE.start_ULTIMATE.startEXIT_8_Array_Int_Int| |hhv_ULTIMATE.start_ULTIMATE.startEXIT_9_Int| |hhv_ULTIMATE.start_ULTIMATE.startEXIT_10_Int| |hhv_ULTIMATE.start_ULTIMATE.startEXIT_11_Int| |hhv_ULTIMATE.start_ULTIMATE.startEXIT_12_Int| |hhv_ULTIMATE.start_ULTIMATE.startEXIT_13_Int| |hhv_ULTIMATE.start_ULTIMATE.startEXIT_14_Int| |hhv_ULTIMATE.start_ULTIMATE.startEXIT_15_Int| |hhv_ULTIMATE.start_ULTIMATE.startEXIT_16_Int| |hhv_ULTIMATE.start_ULTIMATE.startEXIT_17_Int| |hhv_ULTIMATE.start_ULTIMATE.startEXIT_18_Int| |hhv_ULTIMATE.start_ULTIMATE.startEXIT_19_Int| |hhv_ULTIMATE.start_ULTIMATE.startEXIT_20_Int| |hhv_ULTIMATE.start_ULTIMATE.startEXIT_21_Array_Int_Int| |hhv_ULTIMATE.start_ULTIMATE.startEXIT_22_Int| |hhv_ULTIMATE.start_ULTIMATE.startEXIT_23_Int| |hhv_ULTIMATE.start_ULTIMATE.startEXIT_24_Int| |hhv_ULTIMATE.start_ULTIMATE.startEXIT_25_Int| |hhv_ULTIMATE.start_ULTIMATE.startEXIT_26_Int| |hhv_ULTIMATE.start_ULTIMATE.startEXIT_27_Int| |hhv_ULTIMATE.start_ULTIMATE.startEXIT_28_Int| |hhv_ULTIMATE.start_ULTIMATE.startEXIT_29_Int| |hbv_ULTIMATE.start_L2-1_30_Bool| |.loc.5| |.loc.6| |.loc.7| |.loc.8| |hbv_ULTIMATE.start_L19_23_Int| |hbv_ULTIMATE.start_L-1_1_Array_Int_Int|))))
(assert (forall ((|hhv_ULTIMATE.start_ULTIMATE.startEXIT_0_Int| Int) (|hhv_ULTIMATE.start_ULTIMATE.startEXIT_1_Array_Int_Int| (Array Int Int)) (|hhv_ULTIMATE.start_ULTIMATE.startEXIT_2_Array_Int_Int| (Array Int Int)) (|hhv_ULTIMATE.start_ULTIMATE.startEXIT_3_Array_Int_Array_Int_Int| (Array Int Int)) (|hhv_ULTIMATE.start_ULTIMATE.startEXIT_4_Array_Int_Array_Int_Int| (Array Int Int)) (|hhv_ULTIMATE.start_ULTIMATE.startEXIT_5_Int| Int) (|hhv_ULTIMATE.start_ULTIMATE.startEXIT_6_Int| Int) (|hhv_ULTIMATE.start_ULTIMATE.startEXIT_7_Array_Int_Int| (Array Int Int)) (|hhv_ULTIMATE.start_ULTIMATE.startEXIT_8_Array_Int_Int| (Array Int Int)) (|hhv_ULTIMATE.start_ULTIMATE.startEXIT_9_Int| Int) (|hhv_ULTIMATE.start_ULTIMATE.startEXIT_10_Int| Int) (|hhv_ULTIMATE.start_ULTIMATE.startEXIT_11_Int| Int) (|hhv_ULTIMATE.start_ULTIMATE.startEXIT_12_Int| Int) (|hhv_ULTIMATE.start_ULTIMATE.startEXIT_13_Int| Int) (|hhv_ULTIMATE.start_ULTIMATE.startEXIT_14_Int| Int) (|hhv_ULTIMATE.start_ULTIMATE.startEXIT_15_Int| Int) (|hhv_ULTIMATE.start_ULTIMATE.startEXIT_16_Int| Int) (|hhv_ULTIMATE.start_ULTIMATE.startEXIT_17_Int| Int) (|hhv_ULTIMATE.start_ULTIMATE.startEXIT_18_Int| Int) (|hhv_ULTIMATE.start_ULTIMATE.startEXIT_19_Int| Int) (|hhv_ULTIMATE.start_ULTIMATE.startEXIT_20_Int| Int) (|hhv_ULTIMATE.start_ULTIMATE.startEXIT_21_Array_Int_Int| (Array Int Int)) (|hhv_ULTIMATE.start_ULTIMATE.startEXIT_22_Int| Int) (|hhv_ULTIMATE.start_ULTIMATE.startEXIT_23_Int| Int) (|hhv_ULTIMATE.start_ULTIMATE.startEXIT_24_Int| Int) (|hhv_ULTIMATE.start_ULTIMATE.startEXIT_25_Int| Int) (|hhv_ULTIMATE.start_ULTIMATE.startEXIT_26_Int| Int) (|hhv_ULTIMATE.start_ULTIMATE.startEXIT_27_Int| Int) (|hhv_ULTIMATE.start_ULTIMATE.startEXIT_28_Int| Int) (|hhv_ULTIMATE.start_ULTIMATE.startEXIT_29_Int| Int) (|hbv_ULTIMATE.start_L2-1_30_Bool| Bool) (|.loc.5| Bool) (|.loc.6| Bool) (|.loc.7| Bool) (|.loc.8| Bool) (|hbv_ULTIMATE.start_L19_23_Int| Int) (|hbv_ULTIMATE.start_L-1_1_Array_Int_Int| (Array Int Int)) (|.x.677| Int) (|.x.675| (Array Int Int)) (|.x.673| Int) (|.x.671| (Array Int Int)) (|.x.667| Int) (|.x.669| (Array Int Int)) (|.x.668| (Array Int Int)) (|hhv_ULTIMATE.start_ULTIMATE.startEXIT_30_Bool| Bool) (|.x.678| Int) (|.x.681| Int) (|.x.684| Int) (|.x.685| Int) (|.x.687| Int) (|.x.689| Int) (|.loc.11| Bool) (|.loc.10| Bool) (|.x.693| Int) (|.x.680| Int) (|.x.694| Int) (|.loc.9| Bool) (|.x.686| Int) (|.x.683| Int) (|.loc.12| Bool) (|.x.679| Int) (|.x.688| (Array Int Int)) (|.x.682| Int) (|.x.690| Int) (|.x.696| Int) (|.x.670| (Array Int Int)) (|.x.692| Int) (|.x.674| (Array Int Int)) (|.x.672| Int) (|.x.676| Int) (|.x.691| Int) (|.x.695| Int) (|.xtv.1| Int) (|.xtv.2| (Array Int Int))) (=> (and (state |hhv_ULTIMATE.start_ULTIMATE.startEXIT_0_Int| |hhv_ULTIMATE.start_ULTIMATE.startEXIT_1_Array_Int_Int| |hhv_ULTIMATE.start_ULTIMATE.startEXIT_2_Array_Int_Int| |hhv_ULTIMATE.start_ULTIMATE.startEXIT_3_Array_Int_Array_Int_Int| |hhv_ULTIMATE.start_ULTIMATE.startEXIT_4_Array_Int_Array_Int_Int| |hhv_ULTIMATE.start_ULTIMATE.startEXIT_5_Int| |hhv_ULTIMATE.start_ULTIMATE.startEXIT_6_Int| |hhv_ULTIMATE.start_ULTIMATE.startEXIT_7_Array_Int_Int| |hhv_ULTIMATE.start_ULTIMATE.startEXIT_8_Array_Int_Int| |hhv_ULTIMATE.start_ULTIMATE.startEXIT_9_Int| |hhv_ULTIMATE.start_ULTIMATE.startEXIT_10_Int| |hhv_ULTIMATE.start_ULTIMATE.startEXIT_11_Int| |hhv_ULTIMATE.start_ULTIMATE.startEXIT_12_Int| |hhv_ULTIMATE.start_ULTIMATE.startEXIT_13_Int| |hhv_ULTIMATE.start_ULTIMATE.startEXIT_14_Int| |hhv_ULTIMATE.start_ULTIMATE.startEXIT_15_Int| |hhv_ULTIMATE.start_ULTIMATE.startEXIT_16_Int| |hhv_ULTIMATE.start_ULTIMATE.startEXIT_17_Int| |hhv_ULTIMATE.start_ULTIMATE.startEXIT_18_Int| |hhv_ULTIMATE.start_ULTIMATE.startEXIT_19_Int| |hhv_ULTIMATE.start_ULTIMATE.startEXIT_20_Int| |hhv_ULTIMATE.start_ULTIMATE.startEXIT_21_Array_Int_Int| |hhv_ULTIMATE.start_ULTIMATE.startEXIT_22_Int| |hhv_ULTIMATE.start_ULTIMATE.startEXIT_23_Int| |hhv_ULTIMATE.start_ULTIMATE.startEXIT_24_Int| |hhv_ULTIMATE.start_ULTIMATE.startEXIT_25_Int| |hhv_ULTIMATE.start_ULTIMATE.startEXIT_26_Int| |hhv_ULTIMATE.start_ULTIMATE.startEXIT_27_Int| |hhv_ULTIMATE.start_ULTIMATE.startEXIT_28_Int| |hhv_ULTIMATE.start_ULTIMATE.startEXIT_29_Int| |hbv_ULTIMATE.start_L2-1_30_Bool| |.loc.5| |.loc.6| |.loc.7| |.loc.8| |hbv_ULTIMATE.start_L19_23_Int| |hbv_ULTIMATE.start_L-1_1_Array_Int_Int|) (let ((.def_48 (not .loc.7))) (let ((.def_50 (not .loc.8))) (let ((.def_82 (= hhv_ULTIMATE.start_ULTIMATE.startEXIT_1_Array_Int_Int .x.668))) (let ((.def_86 (= hhv_ULTIMATE.start_ULTIMATE.startEXIT_11_Int .x.678))) (let ((.def_89 (= hhv_ULTIMATE.start_ULTIMATE.startEXIT_14_Int .x.681))) (let ((.def_92 (= hhv_ULTIMATE.start_ULTIMATE.startEXIT_17_Int .x.684))) (let ((.def_95 (= hhv_ULTIMATE.start_ULTIMATE.startEXIT_18_Int .x.685))) (let ((.def_98 (= hhv_ULTIMATE.start_ULTIMATE.startEXIT_20_Int .x.687))) (let ((.def_101 (= hhv_ULTIMATE.start_ULTIMATE.startEXIT_22_Int .x.689))) (let ((.def_103 (not .loc.5))) (let ((.def_115 (= hbv_ULTIMATE.start_L2-1_30_Bool hhv_ULTIMATE.start_ULTIMATE.startEXIT_30_Bool))) (let ((.def_122 (not .loc.10))) (let ((.def_125 (= hhv_ULTIMATE.start_ULTIMATE.startEXIT_13_Int 0))) (let ((.def_127 (and .def_82 .def_86))) (let ((.def_132 (and .def_101 (and .def_98 (and .def_95 (and .def_92 (and .def_89 .def_127))))))) (let ((.def_136 (not .loc.11))) (let ((.def_138 (not .loc.6))) (let ((.def_143 (= hhv_ULTIMATE.start_ULTIMATE.startEXIT_26_Int .x.693))) (let ((.def_145 (= hhv_ULTIMATE.start_ULTIMATE.startEXIT_13_Int .x.680))) (let ((.def_148 (= hhv_ULTIMATE.start_ULTIMATE.startEXIT_27_Int .x.694))) (let ((.def_151 (not .loc.9))) (let ((.def_154 (<= hhv_ULTIMATE.start_ULTIMATE.startEXIT_28_Int hhv_ULTIMATE.start_ULTIMATE.startEXIT_16_Int))) (let ((.def_180 (= hhv_ULTIMATE.start_ULTIMATE.startEXIT_19_Int .x.686))) (let ((.def_182 (= hhv_ULTIMATE.start_ULTIMATE.startEXIT_16_Int .x.683))) (let ((.def_192 (and .def_89 (and .def_127 .def_145)))) (let ((.def_194 (and .def_95 (and .def_92 .def_192)))) (let ((.def_226 (and .def_86 (and hbv_ULTIMATE.start_L2-1_30_Bool .def_82)))) (let ((.def_236 (and .def_148 (and .def_143 (and .def_101 (and .def_98 (and .def_180 (and .def_95 (and .def_92 (and .def_182 (and .def_89 (and .def_145 .def_226)))))))))))) (let ((.def_254 (and .def_148 (and .def_143 (and .def_101 (and .def_98 (and .def_180 (and .def_95 (and .def_92 (and .def_182 .def_192)))))))))) (let ((.def_275 (not .loc.12))) (let ((.def_288 (<= 100000 hhv_ULTIMATE.start_ULTIMATE.startEXIT_12_Int))) (let ((.def_289 (or hbv_ULTIMATE.start_L2-1_30_Bool .def_288))) (let ((.def_293 (= hhv_ULTIMATE.start_ULTIMATE.startEXIT_12_Int .x.679))) (let ((.def_295 (and .loc.5 .def_254))) (let ((.def_307 (or hbv_ULTIMATE.start_L2-1_30_Bool (= (+ hhv_ULTIMATE.start_ULTIMATE.startEXIT_12_Int (* (- 1) .x.679)) (- 1))))) (let ((.def_314 (and .def_89 (and .def_145 (and .def_127 .def_293))))) (let ((.def_322 (and .def_148 (and .def_143 (and .def_101 (and .def_98 (and .def_180 (and .def_95 (and .def_92 (and .def_182 .def_314)))))))))) (let ((.def_336 (and .def_89 (and .def_145 (and .def_226 .def_293))))) (let ((.def_355 (= .x.679 0))) (let ((.def_368 (= hhv_ULTIMATE.start_ULTIMATE.startEXIT_21_Array_Int_Int .x.688))) (let ((.def_370 (= hhv_ULTIMATE.start_ULTIMATE.startEXIT_15_Int .x.682))) (let ((.def_373 (= hhv_ULTIMATE.start_ULTIMATE.startEXIT_23_Int .x.690))) (let ((.def_376 (= hhv_ULTIMATE.start_ULTIMATE.startEXIT_29_Int .x.696))) (let ((.def_386 (<= 0 hbv_ULTIMATE.start_L19_23_Int))) (let ((.def_387 (not .def_386))) (let ((.def_412 (or hbv_ULTIMATE.start_L2-1_30_Bool (and (= hbv_ULTIMATE.start_L19_23_Int (select (select hhv_ULTIMATE.start_ULTIMATE.startEXIT_3_Array_Int_Array_Int_Int hhv_ULTIMATE.start_ULTIMATE.startEXIT_11_Int) (+ (* 4 hhv_ULTIMATE.start_ULTIMATE.startEXIT_12_Int) hhv_ULTIMATE.start_ULTIMATE.startEXIT_20_Int))) (not .def_288))))) (let ((.def_423 (and .def_101 (and .def_368 (and .def_98 (and .def_180 (and .def_95 (and .def_92 (and .def_182 (and .def_314 .def_370)))))))))) (let ((.def_502 (= hhv_ULTIMATE.start_ULTIMATE.startEXIT_7_Array_Int_Int .x.674))) (let ((.def_504 (= hhv_ULTIMATE.start_ULTIMATE.startEXIT_5_Int .x.672))) (let ((.def_507 (= hhv_ULTIMATE.start_ULTIMATE.startEXIT_9_Int .x.676))) (let ((.def_510 (= hhv_ULTIMATE.start_ULTIMATE.startEXIT_24_Int .x.691))) (let ((.def_514 (= hhv_ULTIMATE.start_ULTIMATE.startEXIT_28_Int .x.695))) (let ((.def_531 (store hbv_ULTIMATE.start_L-1_1_Array_Int_Int .x.678 1))) (let ((.def_574 (= hhv_ULTIMATE.start_ULTIMATE.startEXIT_3_Array_Int_Array_Int_Int .x.670))) (and (and (= hhv_ULTIMATE.start_ULTIMATE.startEXIT_10_Int .x.677) (and (= hhv_ULTIMATE.start_ULTIMATE.startEXIT_8_Array_Int_Int .x.675) (and (= hhv_ULTIMATE.start_ULTIMATE.startEXIT_6_Int .x.673) (and (= hhv_ULTIMATE.start_ULTIMATE.startEXIT_4_Array_Int_Array_Int_Int .x.671) (and (= hhv_ULTIMATE.start_ULTIMATE.startEXIT_0_Int .x.667) (= hhv_ULTIMATE.start_ULTIMATE.startEXIT_2_Array_Int_Int .x.669)))))) (or (or (and (or (and (or (or (or (or (or (and (or (or (or (or (and (or (or (and (or (or (or (and .def_48 (or (and (or (and (or (and (or (and (and (and (and (and (and (and (and .def_82 hhv_ULTIMATE.start_ULTIMATE.startEXIT_30_Bool) .def_86) .def_89) .def_92) .def_95) .def_98) .def_101) .def_103) (and (or hbv_ULTIMATE.start_L2-1_30_Bool (and (= .x.668 (store (store hhv_ULTIMATE.start_ULTIMATE.startEXIT_1_Array_Int_Int hhv_ULTIMATE.start_ULTIMATE.startEXIT_11_Int 0) hhv_ULTIMATE.start_ULTIMATE.startEXIT_18_Int 0)) (= .x.689 0))) (and (and .loc.5 (or hhv_ULTIMATE.start_ULTIMATE.startEXIT_30_Bool (= .x.684 .x.689))) .def_115))) (and (and .loc.6 .loc.11) .def_122)) (and (or hbv_ULTIMATE.start_L2-1_30_Bool .def_125) (and (and (and .def_115 (and .loc.10 (and .loc.5 .def_132))) .def_136) .def_138))) (and (and (and .def_143 .def_145) .def_148) .def_151)) (and (or hbv_ULTIMATE.start_L2-1_30_Bool (and (not .def_154) (and (= .x.693 (ite (<= 0 .x.694) 1 0)) (and (= .x.693 .x.680) (= .x.694 (select (select hhv_ULTIMATE.start_ULTIMATE.startEXIT_3_Array_Int_Array_Int_Int hhv_ULTIMATE.start_ULTIMATE.startEXIT_18_Int) (+ hhv_ULTIMATE.start_ULTIMATE.startEXIT_14_Int (* 4 hhv_ULTIMATE.start_ULTIMATE.startEXIT_16_Int)))))))) (and .def_138 (and .def_136 (and .def_115 (and .def_122 (and .loc.9 (and .def_103 .def_132)))))))) (and .loc.8 (and .def_180 .def_182))) (and (or hhv_ULTIMATE.start_ULTIMATE.startEXIT_30_Bool (= (+ hhv_ULTIMATE.start_ULTIMATE.startEXIT_16_Int (* (- 1) .x.683)) (- 1))) (and .def_50 (and .def_138 (and .def_136 (and .def_115 (and .def_122 (and .def_151 (and .def_103 (and .def_143 (and .def_101 (and .def_98 .def_194))))))))))))) (and (or hbv_ULTIMATE.start_L2-1_30_Bool (= .x.683 0)) (and .def_50 (and .def_136 (and .def_115 (and .def_122 (and .def_151 (and .loc.7 (and .loc.6 (and .loc.5 (and .def_148 (and .def_143 (and .def_101 (and .def_98 (and .def_180 .def_194))))))))))))))) (and .def_138 (and .def_136 (and .def_115 (and .loc.10 (and .loc.9 (and .def_48 (and .def_103 (and .loc.8 .def_236))))))))) (and (or hbv_ULTIMATE.start_L2-1_30_Bool .def_154) (and .def_138 (and .def_136 (and .def_115 (and .loc.10 (and .loc.9 (and .def_48 (and .def_103 (and .loc.8 .def_254)))))))))) .loc.12) (and (and .def_50 (and .def_115 (and .loc.11 (and .loc.10 (and .loc.9 (and .def_103 (and .loc.7 (and .loc.6 .def_236)))))))) .def_275)) (and (and .def_275 (and .def_50 (and .def_115 (and .loc.11 (and .loc.10 (and .loc.9 (and .def_103 (and .loc.7 (and .loc.6 .def_254))))))))) .def_289)) .def_293) (and (and .def_275 (and .def_50 (and .def_138 (and .def_115 (and .def_151 (and .loc.11 (and .loc.10 (and .def_48 .def_295)))))))) .def_307)) (and (or hbv_ULTIMATE.start_L2-1_30_Bool (not .def_125)) (and .def_275 (and .def_138 (and .def_136 (and .def_115 (and .def_122 (and .def_151 (and .def_48 (and .loc.8 (and .loc.5 .def_322))))))))))) (and .def_275 (and .def_136 (and .def_115 (and .def_122 (and .def_151 (and .def_48 (and .def_103 (and .loc.8 (and .loc.6 (and .def_148 (and .def_143 (and .def_101 (and .def_98 (and .def_180 (and .def_95 (and .def_92 (and .def_182 .def_336)))))))))))))))))) (and (or hbv_ULTIMATE.start_L2-1_30_Bool .def_355) (and .def_275 (and .def_50 (and .def_138 (and .def_115 (and .def_151 (and .loc.11 (and .loc.10 (and .loc.7 .def_295)))))))))) (and (and (and .def_368 .def_370) .def_373) .def_376)) (and (and (or hhv_ULTIMATE.start_ULTIMATE.startEXIT_30_Bool (and (and (= .x.688 (store hhv_ULTIMATE.start_ULTIMATE.startEXIT_21_Array_Int_Int hhv_ULTIMATE.start_ULTIMATE.startEXIT_15_Int (select (select .x.670 .x.678) (+ .x.687 (* 4 .x.679))))) .def_387) (= (+ hhv_ULTIMATE.start_ULTIMATE.startEXIT_15_Int (* (- 1) .x.682)) (- 1)))) (and .def_275 (and .def_50 (and .def_136 (and .def_115 (and .def_122 (and .loc.9 (and .def_103 (and .loc.7 (and .loc.6 .def_322)))))))))) .def_412)) (and (or hhv_ULTIMATE.start_ULTIMATE.startEXIT_30_Bool .def_386) (and .def_412 (and .def_275 (and .def_50 (and .def_136 (and .def_115 (and .def_122 (and .loc.9 (and .def_103 (and .loc.7 (and .loc.6 (and .def_376 (and .def_148 (and .def_143 .def_423))))))))))))))) (and .def_275 (and .def_50 (and .def_138 (and .def_115 (and .def_122 (and .loc.11 (and .loc.9 (and .def_103 (and .loc.7 (and .def_376 (and .def_148 (and .def_143 (and .def_373 (and .def_101 (and .def_368 (and .def_98 (and .def_180 (and .def_95 (and .def_92 (and .def_182 (and .def_336 .def_370)))))))))))))))))))))) (and .def_289 (and .def_275 (and .def_50 (and .def_138 (and .def_115 (and .def_122 (and .loc.11 (and .loc.9 (and .def_103 (and .loc.7 (and .def_376 (and .def_148 (and .def_143 (and .def_373 .def_423))))))))))))))) (and .def_307 (and .def_275 (and .def_50 (and .def_115 (and .def_122 (and .def_151 (and .loc.11 (and .def_48 (and .def_103 (and .loc.6 (and .def_376 (and .def_148 (and .def_143 (and .def_373 (and .def_101 (and .def_368 (and .def_98 (and .def_180 (and .def_95 (and .def_92 (and .def_182 (and .def_192 .def_370))))))))))))))))))))))) (and (and (= hhv_ULTIMATE.start_ULTIMATE.startEXIT_25_Int .x.692) (and (and (and .def_502 .def_504) .def_507) .def_510)) .def_514)) (and (or hbv_ULTIMATE.start_L2-1_30_Bool (and (and (= .x.672 0) (= .x.676 0)) (= hbv_ULTIMATE.start_L-1_1_Array_Int_Int (store hhv_ULTIMATE.start_ULTIMATE.startEXIT_1_Array_Int_Int 0 0)))) (and (or hhv_ULTIMATE.start_ULTIMATE.startEXIT_30_Bool (and (and (and .def_355 (and (and (and (and (and (and (and (and (and (not (<= .x.667 .x.678)) (not (= .x.685 0))) (= .x.682 0)) (= (select .def_531 .x.685) 0)) (= .x.687 0)) (= .x.668 (store .def_531 .x.685 1))) (= .x.681 0)) (not (= .x.678 0))) (= .x.674 (store (store hhv_ULTIMATE.start_ULTIMATE.startEXIT_7_Array_Int_Int .x.678 400000) .x.685 400000))) (= (select hbv_ULTIMATE.start_L-1_1_Array_Int_Int .x.678) 0))) (not (<= .x.667 .x.685))) (= .x.695 0))) (and .def_275 (and .def_50 (and .def_115 (and .def_122 (and .def_151 (and .loc.11 (and .def_48 (and .loc.6 (and .loc.5 (and .def_143 (and .def_92 .def_145)))))))))))))) .def_574) (and (or hhv_ULTIMATE.start_ULTIMATE.startEXIT_30_Bool (and (and .def_386 (= (+ hhv_ULTIMATE.start_ULTIMATE.startEXIT_28_Int (* (- 1) .x.695)) (- 1))) (= .x.670 (store hhv_ULTIMATE.start_ULTIMATE.startEXIT_3_Array_Int_Array_Int_Int .x.685 (store (select hhv_ULTIMATE.start_ULTIMATE.startEXIT_3_Array_Int_Array_Int_Int .x.685) (+ (* 4 hhv_ULTIMATE.start_ULTIMATE.startEXIT_28_Int) .x.681) (select (select hhv_ULTIMATE.start_ULTIMATE.startEXIT_3_Array_Int_Array_Int_Int .x.678) (+ .x.687 (* 4 .x.679)))))))) (and .def_412 (and .def_275 (and .def_50 (and .def_138 (and .def_136 (and .def_115 (and .def_151 (and .loc.10 (and .def_103 (and .loc.7 (and .def_376 (and .def_148 (and .def_143 (and .def_373 (and .def_101 (and .def_368 (and .def_98 (and .def_180 (and .def_95 (and .def_92 (and .def_182 (and .def_370 (and .def_89 (and .def_145 (and .def_293 (and .def_86 (and .def_507 (and .def_502 (and .def_82 .def_504))))))))))))))))))))))))))))))) (and (or hhv_ULTIMATE.start_ULTIMATE.startEXIT_30_Bool .def_387) (and .def_412 (and .def_275 (and .def_50 (and .def_138 (and .def_136 (and .def_115 (and .def_151 (and .loc.10 (and .def_103 (and .loc.7 (and .def_376 (and .def_514 (and .def_148 (and .def_143 (and .def_510 (and .def_373 (and .def_101 (and .def_368 (and .def_98 (and .def_180 (and .def_95 (and .def_92 (and .def_182 (and .def_370 (and .def_89 (and .def_145 (and .def_293 (and .def_86 (and .def_507 (and .def_502 (and .def_504 (and .def_82 .def_574)))))))))))))))))))))))))))))))))))))))))))))))))))))))))))))))))))))))))))))))))))))))))) (state |.x.667| |.x.668| |.x.669| |.x.670| |.x.671| |.x.672| |.x.673| |.x.674| |.x.675| |.x.676| |.x.677| |.x.678| |.x.679| |.x.680| |.x.681| |.x.682| |.x.683| |.x.684| |.x.685| |.x.686| |.x.687| |.x.688| |.x.689| |.x.690| |.x.691| |.x.692| |.x.693| |.x.694| |.x.695| |.x.696| |hhv_ULTIMATE.start_ULTIMATE.startEXIT_30_Bool| |.loc.9| |.loc.10| |.loc.11| |.loc.12| |.xtv.1| |.xtv.2|))))
(assert (forall ((|hhv_ULTIMATE.start_ULTIMATE.startEXIT_0_Int| Int) (|hhv_ULTIMATE.start_ULTIMATE.startEXIT_1_Array_Int_Int| (Array Int Int)) (|hhv_ULTIMATE.start_ULTIMATE.startEXIT_2_Array_Int_Int| (Array Int Int)) (|hhv_ULTIMATE.start_ULTIMATE.startEXIT_3_Array_Int_Array_Int_Int| (Array Int Int)) (|hhv_ULTIMATE.start_ULTIMATE.startEXIT_4_Array_Int_Array_Int_Int| (Array Int Int)) (|hhv_ULTIMATE.start_ULTIMATE.startEXIT_5_Int| Int) (|hhv_ULTIMATE.start_ULTIMATE.startEXIT_6_Int| Int) (|hhv_ULTIMATE.start_ULTIMATE.startEXIT_7_Array_Int_Int| (Array Int Int)) (|hhv_ULTIMATE.start_ULTIMATE.startEXIT_8_Array_Int_Int| (Array Int Int)) (|hhv_ULTIMATE.start_ULTIMATE.startEXIT_9_Int| Int) (|hhv_ULTIMATE.start_ULTIMATE.startEXIT_10_Int| Int) (|hhv_ULTIMATE.start_ULTIMATE.startEXIT_11_Int| Int) (|hhv_ULTIMATE.start_ULTIMATE.startEXIT_12_Int| Int) (|hhv_ULTIMATE.start_ULTIMATE.startEXIT_13_Int| Int) (|hhv_ULTIMATE.start_ULTIMATE.startEXIT_14_Int| Int) (|hhv_ULTIMATE.start_ULTIMATE.startEXIT_15_Int| Int) (|hhv_ULTIMATE.start_ULTIMATE.startEXIT_16_Int| Int) (|hhv_ULTIMATE.start_ULTIMATE.startEXIT_17_Int| Int) (|hhv_ULTIMATE.start_ULTIMATE.startEXIT_18_Int| Int) (|hhv_ULTIMATE.start_ULTIMATE.startEXIT_19_Int| Int) (|hhv_ULTIMATE.start_ULTIMATE.startEXIT_20_Int| Int) (|hhv_ULTIMATE.start_ULTIMATE.startEXIT_21_Array_Int_Int| (Array Int Int)) (|hhv_ULTIMATE.start_ULTIMATE.startEXIT_22_Int| Int) (|hhv_ULTIMATE.start_ULTIMATE.startEXIT_23_Int| Int) (|hhv_ULTIMATE.start_ULTIMATE.startEXIT_24_Int| Int) (|hhv_ULTIMATE.start_ULTIMATE.startEXIT_25_Int| Int) (|hhv_ULTIMATE.start_ULTIMATE.startEXIT_26_Int| Int) (|hhv_ULTIMATE.start_ULTIMATE.startEXIT_27_Int| Int) (|hhv_ULTIMATE.start_ULTIMATE.startEXIT_28_Int| Int) (|hhv_ULTIMATE.start_ULTIMATE.startEXIT_29_Int| Int) (|hbv_ULTIMATE.start_L2-1_30_Bool| Bool) (|.loc.5| Bool) (|.loc.6| Bool) (|.loc.7| Bool) (|.loc.8| Bool) (|hbv_ULTIMATE.start_L19_23_Int| Int) (|hbv_ULTIMATE.start_L-1_1_Array_Int_Int| (Array Int Int)) (|.x.677| Int) (|.x.675| (Array Int Int)) (|.x.673| Int) (|.x.671| (Array Int Int)) (|.x.667| Int) (|.x.669| (Array Int Int)) (|.x.668| (Array Int Int)) (|hhv_ULTIMATE.start_ULTIMATE.startEXIT_30_Bool| Bool) (|.x.678| Int) (|.x.681| Int) (|.x.684| Int) (|.x.685| Int) (|.x.687| Int) (|.x.689| Int) (|.loc.11| Bool) (|.loc.10| Bool) (|.x.693| Int) (|.x.680| Int) (|.x.694| Int) (|.loc.9| Bool) (|.x.686| Int) (|.x.683| Int) (|.loc.12| Bool) (|.x.679| Int) (|.x.688| (Array Int Int)) (|.x.682| Int) (|.x.690| Int) (|.x.696| Int) (|.x.670| (Array Int Int)) (|.x.692| Int) (|.x.674| (Array Int Int)) (|.x.672| Int) (|.x.676| Int) (|.x.691| Int) (|.x.695| Int) (|.xtv.1| Int) (|.xtv.2| (Array Int Int))) (=> (state |hhv_ULTIMATE.start_ULTIMATE.startEXIT_0_Int| |hhv_ULTIMATE.start_ULTIMATE.startEXIT_1_Array_Int_Int| |hhv_ULTIMATE.start_ULTIMATE.startEXIT_2_Array_Int_Int| |hhv_ULTIMATE.start_ULTIMATE.startEXIT_3_Array_Int_Array_Int_Int| |hhv_ULTIMATE.start_ULTIMATE.startEXIT_4_Array_Int_Array_Int_Int| |hhv_ULTIMATE.start_ULTIMATE.startEXIT_5_Int| |hhv_ULTIMATE.start_ULTIMATE.startEXIT_6_Int| |hhv_ULTIMATE.start_ULTIMATE.startEXIT_7_Array_Int_Int| |hhv_ULTIMATE.start_ULTIMATE.startEXIT_8_Array_Int_Int| |hhv_ULTIMATE.start_ULTIMATE.startEXIT_9_Int| |hhv_ULTIMATE.start_ULTIMATE.startEXIT_10_Int| |hhv_ULTIMATE.start_ULTIMATE.startEXIT_11_Int| |hhv_ULTIMATE.start_ULTIMATE.startEXIT_12_Int| |hhv_ULTIMATE.start_ULTIMATE.startEXIT_13_Int| |hhv_ULTIMATE.start_ULTIMATE.startEXIT_14_Int| |hhv_ULTIMATE.start_ULTIMATE.startEXIT_15_Int| |hhv_ULTIMATE.start_ULTIMATE.startEXIT_16_Int| |hhv_ULTIMATE.start_ULTIMATE.startEXIT_17_Int| |hhv_ULTIMATE.start_ULTIMATE.startEXIT_18_Int| |hhv_ULTIMATE.start_ULTIMATE.startEXIT_19_Int| |hhv_ULTIMATE.start_ULTIMATE.startEXIT_20_Int| |hhv_ULTIMATE.start_ULTIMATE.startEXIT_21_Array_Int_Int| |hhv_ULTIMATE.start_ULTIMATE.startEXIT_22_Int| |hhv_ULTIMATE.start_ULTIMATE.startEXIT_23_Int| |hhv_ULTIMATE.start_ULTIMATE.startEXIT_24_Int| |hhv_ULTIMATE.start_ULTIMATE.startEXIT_25_Int| |hhv_ULTIMATE.start_ULTIMATE.startEXIT_26_Int| |hhv_ULTIMATE.start_ULTIMATE.startEXIT_27_Int| |hhv_ULTIMATE.start_ULTIMATE.startEXIT_28_Int| |hhv_ULTIMATE.start_ULTIMATE.startEXIT_29_Int| |hbv_ULTIMATE.start_L2-1_30_Bool| |.loc.5| |.loc.6| |.loc.7| |.loc.8| |hbv_ULTIMATE.start_L19_23_Int| |hbv_ULTIMATE.start_L-1_1_Array_Int_Int|) (not (and hbv_ULTIMATE.start_L2-1_30_Bool (and .loc.8 (and .loc.7 (and (not .loc.5) (not .loc.6)))))))))
(check-sat)
